2	23	1	8	29	100	0	0	0	0	0	0
800	1	0	0	0	0	0	0	0	0	0	0
800	1	0	0	0	0	0	0	0	0	0	0
100	1	0	67.12	0.45	1	0	0	0	0	0	0
100	1	0	67.12	0.45	1	0	0	0	0	0	0
100	1	0	67.12	0.45	1	0	0	0	0	0	0
100	1	0	67.12	0.45	1	0	0	0	0	0	0
100	1	0	67.12	0.45	1	0	0	0	0	0	0
100	1	0	67.12	0.45	1	0	0	0	0	0	0
100	1	0	67.12	0.45	1	0	0	0	0	0	0
100	1	0	67.12	0.45	1	0	0	0	0	0	0
100	1	0	67.12	0.45	1	0	0	0	0	0	0
100	1	0	67.12	0.45	1	0	0	0	0	0	0
100	1	0	67.12	0.45	1	0	0	0	0	0	0
100	1	0	67.12	0.45	1	0	0	0	0	0	0
100	1	0	67.12	0.45	1	0	0	0	0	0	0
100	1	0	67.12	0.45	1	0	0	0	0	0	0
100	1	0	67.12	0.45	1	0	0	0	0	0	0
100	1	0	67.12	0.45	1	0	0	0	0	0	0
100	1	0	67.12	0.45	1	0	0	0	0	0	0
100	1	0	67.12	0.45	1	0	0	0	0	0	0
100	1	0	67.12	0.45	1	0	0	0	0	0	0
100	1	0	67.12	0.45	1	0	0	0	0	0	0
100	1	0	67.12	0.45	1	0	0	0	0	0	0
100	1	0	67.12	0.45	1	0	0	0	0	0	0
100	1	0	67.12	0.45	1	0	0	0	0	0	0
50	150	0	0	0	0	230	0	0	99999	0	0
25	25	0	0	0	0	230	0	0	99999	0	0
50	25	0	0	0	0	230	0	0	99999	0	0
75	25	0	0	0	0	230	0	0	99999	0	0
25	50	0	0	0	0	230	0	0	99999	0	0
75	50	0	0	0	0	230	0	0	99999	0	0
25	75	0	0	0	0	230	0	0	99999	0	0
50	75	0	0	0	0	230	0	0	99999	0	0
75	75	0	0	0	0	230	0	0	99999	0	0
25	25	0	0	0	0	230	0	0	0	0	0
50	25	0	0	0	0	230	0	0	0	0	0
75	25	0	0	0	0	230	0	0	0	0	0
25	50	0	0	0	0	230	0	0	0	0	0
75	50	0	0	0	0	230	0	0	0	0	0
25	75	0	0	0	0	230	0	0	0	0	0
50	75	0	0	0	0	230	0	0	0	0	0
75	75	0	0	0	0	230	0	0	0	0	0
35      35      0       0       0       0       230     0       0       0       0       0
61      37      0       0       0       0       230     0       0       0       0       0
74      39      0       0       0       0       230     0       0       0       0       0
47      57      0       0       0       0       230     0       0       0       0       0
57      65      0       0       0       0       230     0       0       0       0       0
29      59      0       0       0       0       230     0       0       0       0       0
34      71      0       0       0       0       230     0       0       0       0       0
22      58      0       0       0       0       230     0       0       0       0       0
7	61	0	0	0	0	230	0	0	0	0	0
18	41	0	0	0	0	230	0	0	0	0	0
5	39	0	0	0	0	230	0	0	0	0	0
14	20	0	0	0	0	230	0	0	0	0	0
0	26	0	0	0	0	230	0	0	0	0	0
24	25	0	0	0	0	230	0	0	0	0	0
26	6	0	0	0	0	230	0	0	0	0	0
34	20	0	0	0	0	230	0	0	0	0	0
41	5	0	0	0	0	230	0	0	0	0	0
50	9	0	0	0	0	230	0	0	0	0	0
61	14	0	0	0	0	230	0	0	0	0	0
62	21	0	0	0	0	230	0	0	0	0	0
74	30	0	0	0	0	230	0	0	0	0	0
41	49	10	8	2	132	188	10	0	0	0	0
35	17	7	3	4	159	277	10	0	0	0	0
55	45	13	11	2	139	313	10	0	0	0	0
55	20	19	7	12	204	252	10	0	0	0	0
15	30	26	13	13	184	315	10	0	0	0	0
25	30	3	3	0	155	277	10	0	0	0	0
20	50	5	2	3	185	233	10	0	0	0	0
10	43	9	2	7	143	238	10	0	0	0	0
55	60	16	15	1	190	303	10	0	0	0	0
30	60	16	8	8	233	310	10	0	0	0	0
20	65	12	4	8	211	302	10	0	0	0	0
50	35	19	13	6	267	321	10	0	0	0	0
30	25	23	19	4	233	324	10	0	0	0	0
15	10	20	13	7	151	251	10	0	0	0	0
30	5	8	1	7	201	269	10	0	0	0	0
10	20	19	10	9	146	254	10	0	0	0	0
5	30	2	0	2	157	231	10	0	0	0	0
20	40	12	6	6	208	288	10	0	0	0	0
15	60	17	4	13	203	303	10	0	0	0	0
45	65	9	6	3	148	208	10	0	0	0	0
45	20	11	5	6	135	251	10	0	0	0	0
45	10	18	4	14	143	234	10	0	0	0	0
55	5	29	3	26	164	299	10	0	0	0	0
65	35	3	2	1	225	306	10	0	0	0	0
65	20	6	2	4	218	302	10	0	0	0	0
45	30	17	11	6	235	324	10	0	0	0	0
35	40	16	14	2	183	331	10	0	0	0	0
41	37	16	14	2	221	329	10	0	0	0	0
64	42	9	6	3	197	279	10	0	0	0	0
40	60	21	14	7	231	310	10	0	0	0	0
31	52	27	16	11	134	318	10	0	0	0	0
35	69	23	12	11	212	302	10	0	0	0	0
53	52	11	11	0	141	271	10	0	0	0	0
65	55	14	12	2	200	299	10	0	0	0	0
63	65	8	8	0	171	294	10	0	0	0	0
2	60	5	0	5	167	262	10	0	0	0	0
20	20	8	8	0	165	314	10	0	0	0	0
5	5	16	16	0	176	293	10	0	0	0	0
60	12	31	6	25	175	302	10	0	0	0	0
40	25	9	6	3	128	195	10	0	0	0	0
42	7	5	1	4	207	307	10	0	0	0	0
24	12	5	3	2	242	294	10	0	0	0	0
23	3	7	1	6	159	301	10	0	0	0	0
11	14	18	14	4	198	304	10	0	0	0	0
6	38	16	3	13	155	306	10	0	0	0	0
2	48	1	0	1	194	300	10	0	0	0	0
8	56	27	4	23	186	301	10	0	0	0	0
13	52	36	9	27	198	308	10	0	0	0	0
6	68	30	3	27	175	267	10	0	0	0	0
47	47	13	13	0	208	270	10	0	0	0	0
49	58	10	8	2	208	309	10	0	0	0	0
27	43	9	6	3	168	296	10	0	0	0	0
37	31	14	12	2	233	331	10	0	0	0	0
57	29	18	9	9	164	254	10	0	0	0	0
63	23	2	1	1	147	288	10	0	0	0	0
53	12	6	1	5	146	269	10	0	0	0	0
32	12	7	3	4	225	312	10	0	0	0	0
36	26	18	13	5	190	276	10	0	0	0	0
21	24	28	25	3	176	268	10	0	0	0	0
17	34	3	2	1	135	238	10	0	0	0	0
12	24	13	7	6	142	310	10	0	0	0	0
24	58	19	8	11	142	236	10	0	0	0	0
27	69	10	4	6	162	297	10	0	0	0	0
15	77	9	2	7	175	248	10	0	0	0	0
62	77	20	16	4	183	256	10	0	0	0	0
49	73	25	17	8	175	295	10	0	0	0	0
67	5	25	2	23	176	276	10	0	0	0	0
56	39	36	25	11	138	256	10	0	0	0	0
37	47	6	5	1	225	319	10	0	0	0	0
37	56	5	3	2	138	206	10	0	0	0	0
57	68	15	13	2	239	296	10	0	0	0	0
47	16	25	9	16	173	291	10	0	0	0	0
44	17	9	3	6	231	283	10	0	0	0	0
46	13	8	2	6	141	206	10	0	0	0	0
49	11	18	4	14	146	214	10	0	0	0	0
49	42	13	11	2	221	320	10	0	0	0	0
53	43	14	11	3	208	316	10	0	0	0	0
61	52	3	3	0	148	297	10	0	0	0	0
57	48	23	19	4	165	257	10	0	0	0	0
56	37	6	4	2	163	295	10	0	0	0	0
55	54	26	26	0	144	224	10	0	0	0	0
15	47	16	5	11	236	312	10	0	0	0	0
14	37	11	4	7	212	314	10	0	0	0	0
11	31	7	2	5	165	269	10	0	0	0	0
16	22	41	30	11	140	303	10	0	0	0	0
4	18	35	8	27	256	296	10	0	0	0	0
28	18	26	17	9	283	291	10	0	0	0	0
26	52	9	5	4	200	316	10	0	0	0	0
26	35	15	11	4	125	243	10	0	0	0	0
31	67	3	1	2	201	275	10	0	0	0	0
15	19	1	1	0	146	270	10	0	0	0	0
22	22	2	2	0	171	317	10	0	0	0	0
18	24	22	17	5	210	258	10	0	0	0	0
26	27	27	26	1	244	323	10	0	0	0	0
25	24	20	19	1	187	321	10	0	0	0	0
22	27	11	9	2	132	176	10	0	0	0	0
25	21	12	10	2	243	283	10	0	0	0	0
19	21	10	9	1	182	268	10	0	0	0	0
20	26	9	7	2	228	290	10	0	0	0	0
18	18	17	17	0	209	209	10	0	0	0	0
